13380
0 0 0 0 1 1 0 1 1 1 1 0 0 1 0 0 0 0 0 0 1 1 1 0 0 1 0 1 0 0
21 10 13 7 8 8 13 8 7 13 20 27 8 21 5 8 13 8 25 5 21 27 8 7 5 10 27 9 5 9 4 13 10 9 4 8 20 13 4 9 25 13 10 10 4 7 20 8 5 7 22 13 8 7 13 21 27 5 13 8 22 13 8 7 13 8 13 10 10 4 8 9 8 21 4 10 7 8 5 13 4 13 10 7 4 21 27 27 7 5 4 13 8 9 4 21 13 8 25 5 4 5 22 9 4 22 27 8 5 5 22 20 8 7 13 22 27 8 25 5 7 20 8 5 13 10 20 8 25 25 10 13 8 25 7 21 27 8 25 25 8 13 8 10 4 22 27 8 25 25